 &control
	calculation='scf'
	prefix='sc',
	pseudo_dir = '/home/atan/sissa_es02/',
	outdir='../tmp/'
 /
 &system
	ibrav=4
	celldm(1)=6.09368707
	celldm(3)=1.54636503
	nat=2
	ntyp=1
	ecutwfc=70
	ecutrho=320
	occupations='smearing'
	smearing='mv'
	degauss=0.02
 /
 &electrons
	mixing_mode='plain'
	mixing_beta=0.7
	diagonalization='david'
	conv_thr=1.0d-10
 /

ATOMIC_SPECIES
 Sc 44.596 Sc.pz-spn-kjpaw_psl.1.0.0.UPF 

ATOMIC_POSITIONS crystal
 Sc 0.00 0.00 0.00
 Sc 0.666666666667 0.333333333333 0.5

K_POINTS automatic
36 36 24 1 1 1
