 &control 
	calculation='scf'
	restart_mode='from_scratch',
	prefix='scandium',
	pseudo_dir='../../',
	outdir='sc_rhocut.out'
 /
 &system
	ibrav=4
	celldm(1)=6.2531037
	celldm(3)=1.594
	nat=2
	ntyp=1
	ecutwfc=120
	ecutrho=480
	occupations='smearing'
	smearing='mv'
	degauss=0.02

 /
 &electrons
	mixing_mode='plain'
	mixing_beta=0.7
	diagonalization='david'
	conv_thr=1.0d-8
 /

ATOMIC_SPECIES
 Sc 44.596 Sc.pz-spn-kjpaw_psl.1.0.0.UPF

ATOMIC_POSITIONS crystal
 Sc 0.00 0.00 0.00
 Sc 0.666666666667 0.333333333333 0.5
K_POINTS automatic
12 12 8 0 0 0
