
 &inputph
	prefix='sc',
	fildyn='sc.dyn.xml',
	ldisp=.TRUE. 
	nq1=4,
	nq2=4,
	nq3=2,
	tr2_ph=1.0d-16,
 /
